T=5;
V=16;
graph=[|true,true,false,false,true,false,false,false,false,false,false,false,false,false,false,false
|true,true,true,false,false,true,false,false,false,false,false,false,false,false,false,false
|false,true,true,true,false,false,true,false,false,false,false,false,false,false,false,false
|false,false,true,true,false,false,false,true,false,false,false,false,false,false,false,false
|true,false,false,false,true,true,false,false,true,false,false,false,false,false,false,false
|false,true,false,false,true,true,true,false,false,true,false,false,false,false,false,false
|false,false,true,false,false,true,true,true,false,false,true,false,false,false,false,false
|false,false,false,true,false,false,true,true,false,false,false,true,false,false,false,false
|false,false,false,false,true,false,false,false,true,true,false,false,true,false,false,false
|false,false,false,false,false,true,false,false,true,true,true,false,false,true,false,false
|false,false,false,false,false,false,true,false,false,true,true,true,false,false,true,false
|false,false,false,false,false,false,false,true,false,false,true,true,false,false,false,true
|false,false,false,false,false,false,false,false,true,false,false,false,true,true,false,false
|false,false,false,false,false,false,false,false,false,true,false,false,true,true,true,false
|false,false,false,false,false,false,false,false,false,false,true,false,false,true,true,true
|false,false,false,false,false,false,false,false,false,false,false,true,false,false,true,true|];
A=15;
start=[7,8,9,6,1,5,14,2,16,10,4,12,15,11,13];
end=[1,2,3,4,5,6,7,8,9,10,11,12,13,14,15];
